p edge 200 1990
e 1 13
e 1 17
e 1 31
e 1 40
e 1 50
e 1 51
e 1 70
e 1 73
e 1 108
e 1 134
e 1 162
e 2 20
e 2 21
e 2 28
e 2 29
e 2 48
e 2 53
e 2 57
e 2 69
e 2 86
e 2 94
e 2 113
e 2 118
e 2 133
e 2 153
e 2 167
e 2 168
e 2 174
e 2 175
e 2 178
e 2 186
e 3 7
e 3 12
e 3 19
e 3 23
e 3 28
e 3 29
e 3 38
e 3 52
e 3 54
e 3 63
e 3 67
e 3 80
e 3 81
e 3 93
e 3 94
e 3 137
e 3 166
e 3 169
e 3 182
e 3 185
e 3 196
e 3 200
e 4 12
e 4 17
e 4 21
e 4 22
e 4 46
e 4 52
e 4 53
e 4 59
e 4 62
e 4 69
e 4 70
e 4 79
e 4 81
e 4 85
e 4 99
e 4 102
e 4 115
e 4 117
e 4 136
e 4 143
e 4 179
e 5 10
e 5 56
e 5 60
e 5 62
e 5 68
e 5 89
e 5 117
e 5 121
e 5 127
e 5 128
e 5 149
e 5 167
e 5 174
e 5 183
e 5 187
e 5 188
e 5 200
e 6 16
e 6 23
e 6 61
e 6 64
e 6 66
e 6 67
e 6 74
e 6 78
e 6 83
e 6 87
e 6 93
e 6 101
e 6 103
e 6 104
e 6 115
e 6 120
e 6 121
e 6 136
e 6 142
e 6 148
e 6 149
e 6 153
e 6 155
e 6 158
e 6 161
e 6 164
e 6 193
e 7 15
e 7 20
e 7 26
e 7 33
e 7 47
e 7 51
e 7 55
e 7 71
e 7 100
e 7 103
e 7 106
e 7 121
e 7 170
e 7 176
e 7 194
e 8 41
e 8 48
e 8 54
e 8 72
e 8 74
e 8 83
e 8 98
e 8 99
e 8 101
e 8 106
e 8 129
e 8 155
e 8 159
e 8 161
e 8 163
e 8 175
e 8 196
e 9 31
e 9 36
e 9 43
e 9 48
e 9 50
e 9 59
e 9 65
e 9 68
e 9 75
e 9 86
e 9 107
e 9 108
e 9 127
e 9 133
e 9 138
e 9 139
e 9 163
e 9 180
e 9 183
e 9 189
e 9 192
e 9 197
e 10 26
e 10 38
e 10 41
e 10 47
e 10 54
e 10 56
e 10 64
e 10 66
e 10 104
e 10 111
e 10 125
e 10 128
e 10 132
e 10 152
e 10 153
e 10 171
e 10 176
e 10 185
e 10 189
e 11 16
e 11 33
e 11 34
e 11 38
e 11 48
e 11 55
e 11 56
e 11 58
e 11 72
e 11 79
e 11 108
e 11 129
e 11 134
e 11 135
e 11 162
e 11 176
e 11 178
e 11 189
e 11 195
e 11 196
e 12 24
e 12 30
e 12 48
e 12 52
e 12 64
e 12 74
e 12 82
e 12 90
e 12 94
e 12 95
e 12 112
e 12 114
e 12 123
e 12 139
e 12 170
e 12 178
e 13 17
e 13 22
e 13 34
e 13 36
e 13 48
e 13 69
e 13 78
e 13 83
e 13 95
e 13 113
e 13 136
e 13 138
e 13 143
e 13 148
e 13 156
e 13 160
e 13 164
e 13 187
e 13 193
e 13 196
e 13 198
e 14 36
e 14 67
e 14 78
e 14 92
e 14 94
e 14 110
e 14 160
e 14 175
e 14 183
e 14 188
e 14 200
e 15 20
e 15 22
e 15 27
e 15 30
e 15 37
e 15 45
e 15 46
e 15 47
e 15 50
e 15 66
e 15 71
e 15 73
e 15 80
e 15 83
e 15 90
e 15 96
e 15 102
e 15 107
e 15 122
e 15 124
e 15 153
e 15 177
e 15 180
e 15 186
e 15 192
e 15 196
e 16 27
e 16 41
e 16 49
e 16 54
e 16 55
e 16 58
e 16 59
e 16 71
e 16 100
e 16 128
e 16 136
e 16 139
e 16 142
e 16 144
e 16 145
e 16 184
e 16 189
e 16 193
e 16 195
e 17 20
e 17 22
e 17 23
e 17 35
e 17 52
e 17 70
e 17 71
e 17 83
e 17 84
e 17 87
e 17 95
e 17 111
e 17 114
e 17 126
e 17 128
e 17 130
e 17 143
e 17 155
e 17 166
e 17 193
e 18 34
e 18 37
e 18 38
e 18 46
e 18 64
e 18 71
e 18 113
e 18 115
e 18 120
e 18 123
e 18 128
e 18 129
e 18 132
e 18 155
e 18 165
e 18 167
e 18 176
e 18 178
e 18 183
e 18 187
e 18 190
e 18 195
e 19 25
e 19 31
e 19 40
e 19 45
e 19 51
e 19 54
e 19 81
e 19 83
e 19 116
e 19 118
e 19 121
e 19 133
e 19 134
e 19 158
e 19 168
e 19 171
e 19 181
e 19 182
e 19 194
e 19 196
e 20 58
e 20 75
e 20 102
e 20 105
e 20 110
e 20 124
e 20 126
e 20 139
e 20 140
e 20 144
e 20 155
e 20 159
e 20 161
e 20 171
e 20 182
e 20 186
e 20 187
e 20 193
e 21 40
e 21 45
e 21 46
e 21 47
e 21 51
e 21 56
e 21 63
e 21 64
e 21 77
e 21 84
e 21 85
e 21 91
e 21 96
e 21 99
e 21 100
e 21 107
e 21 119
e 21 122
e 21 128
e 21 139
e 21 144
e 21 150
e 21 169
e 21 170
e 21 193
e 22 25
e 22 50
e 22 54
e 22 64
e 22 67
e 22 68
e 22 73
e 22 76
e 22 98
e 22 126
e 22 134
e 22 141
e 22 144
e 22 158
e 22 159
e 22 175
e 22 180
e 22 184
e 22 190
e 22 192
e 23 39
e 23 51
e 23 58
e 23 73
e 23 76
e 23 89
e 23 98
e 23 122
e 23 132
e 23 136
e 23 159
e 23 174
e 23 182
e 24 36
e 24 77
e 24 79
e 24 82
e 24 86
e 24 88
e 24 91
e 24 119
e 24 167
e 24 168
e 24 170
e 24 192
e 25 27
e 25 48
e 25 53
e 25 59
e 25 60
e 25 66
e 25 68
e 25 70
e 25 77
e 25 80
e 25 112
e 25 122
e 25 128
e 25 133
e 25 144
e 25 146
e 25 156
e 25 163
e 25 165
e 25 167
e 25 179
e 26 31
e 26 33
e 26 42
e 26 47
e 26 48
e 26 50
e 26 59
e 26 62
e 26 79
e 26 87
e 26 92
e 26 102
e 26 105
e 26 107
e 26 110
e 26 117
e 26 121
e 26 151
e 26 154
e 26 156
e 26 161
e 26 162
e 26 166
e 26 169
e 26 173
e 26 175
e 26 182
e 26 184
e 26 191
e 27 43
e 27 44
e 27 50
e 27 57
e 27 61
e 27 63
e 27 80
e 27 89
e 27 90
e 27 94
e 27 95
e 27 119
e 27 126
e 27 178
e 28 31
e 28 38
e 28 48
e 28 67
e 28 107
e 28 112
e 28 113
e 28 119
e 28 120
e 28 129
e 28 133
e 28 136
e 28 144
e 28 148
e 28 153
e 28 156
e 28 160
e 28 161
e 28 167
e 28 181
e 28 195
e 28 198
e 29 36
e 29 38
e 29 43
e 29 46
e 29 47
e 29 48
e 29 52
e 29 53
e 29 65
e 29 67
e 29 68
e 29 70
e 29 71
e 29 90
e 29 101
e 29 108
e 29 118
e 29 136
e 29 137
e 29 141
e 29 142
e 29 144
e 29 145
e 29 165
e 29 174
e 29 176
e 29 183
e 29 197
e 29 199
e 30 33
e 30 34
e 30 39
e 30 52
e 30 53
e 30 74
e 30 77
e 30 85
e 30 89
e 30 92
e 30 115
e 30 130
e 30 135
e 30 136
e 30 139
e 30 151
e 30 179
e 30 181
e 30 188
e 30 195
e 30 197
e 30 200
e 31 41
e 31 51
e 31 56
e 31 60
e 31 73
e 31 74
e 31 97
e 31 102
e 31 104
e 31 124
e 31 133
e 31 140
e 31 145
e 31 147
e 31 161
e 31 162
e 31 174
e 31 189
e 31 190
e 31 194
e 32 33
e 32 55
e 32 59
e 32 68
e 32 69
e 32 74
e 32 76
e 32 77
e 32 78
e 32 82
e 32 83
e 32 98
e 32 99
e 32 103
e 32 118
e 32 130
e 32 134
e 32 169
e 32 172
e 32 188
e 32 189
e 32 192
e 32 195
e 33 51
e 33 62
e 33 67
e 33 83
e 33 111
e 33 113
e 33 114
e 33 121
e 33 125
e 33 128
e 33 152
e 33 182
e 33 190
e 33 191
e 33 199
e 34 42
e 34 51
e 34 55
e 34 85
e 34 90
e 34 95
e 34 101
e 34 110
e 34 112
e 34 113
e 34 148
e 34 161
e 34 169
e 34 170
e 34 189
e 34 196
e 35 38
e 35 71
e 35 80
e 35 83
e 35 89
e 35 92
e 35 96
e 35 111
e 35 129
e 35 144
e 35 158
e 35 162
e 35 167
e 35 168
e 35 192
e 36 50
e 36 51
e 36 56
e 36 60
e 36 81
e 36 82
e 36 86
e 36 101
e 36 113
e 36 122
e 36 136
e 36 139
e 36 142
e 36 167
e 36 175
e 36 190
e 37 38
e 37 54
e 37 57
e 37 62
e 37 74
e 37 81
e 37 86
e 37 98
e 37 108
e 37 123
e 37 135
e 37 165
e 37 173
e 37 198
e 38 42
e 38 43
e 38 52
e 38 58
e 38 72
e 38 77
e 38 82
e 38 92
e 38 110
e 38 123
e 38 131
e 38 155
e 38 167
e 38 170
e 38 200
e 39 40
e 39 45
e 39 57
e 39 69
e 39 86
e 39 89
e 39 98
e 39 107
e 39 115
e 39 119
e 39 121
e 39 122
e 39 151
e 39 169
e 39 176
e 39 185
e 39 197
e 40 43
e 40 44
e 40 47
e 40 62
e 40 70
e 40 125
e 40 126
e 40 127
e 40 142
e 40 156
e 40 169
e 40 177
e 40 179
e 40 192
e 41 62
e 41 73
e 41 78
e 41 112
e 41 118
e 41 134
e 41 138
e 41 142
e 41 152
e 41 174
e 41 183
e 41 194
e 42 48
e 42 55
e 42 56
e 42 65
e 42 66
e 42 98
e 42 99
e 42 114
e 42 120
e 42 134
e 42 143
e 42 147
e 42 148
e 42 176
e 42 183
e 43 47
e 43 51
e 43 61
e 43 63
e 43 66
e 43 73
e 43 89
e 43 96
e 43 100
e 43 107
e 43 115
e 43 123
e 43 137
e 43 155
e 43 169
e 43 172
e 43 179
e 43 182
e 43 184
e 43 193
e 44 46
e 44 51
e 44 52
e 44 56
e 44 75
e 44 94
e 44 112
e 44 113
e 44 122
e 44 129
e 44 146
e 44 161
e 44 166
e 44 175
e 44 186
e 45 46
e 45 52
e 45 80
e 45 86
e 45 91
e 45 95
e 45 115
e 45 121
e 45 140
e 45 144
e 45 161
e 45 181
e 45 192
e 45 200
e 46 55
e 46 56
e 46 59
e 46 60
e 46 62
e 46 74
e 46 78
e 46 87
e 46 89
e 46 90
e 46 107
e 46 126
e 46 139
e 46 143
e 46 152
e 46 153
e 46 157
e 46 198
e 47 57
e 47 75
e 47 80
e 47 88
e 47 90
e 47 113
e 47 126
e 47 127
e 47 175
e 47 176
e 47 182
e 47 186
e 47 188
e 48 55
e 48 62
e 48 63
e 48 73
e 48 82
e 48 90
e 48 113
e 48 151
e 48 159
e 48 165
e 48 180
e 48 183
e 49 64
e 49 69
e 49 108
e 49 111
e 49 137
e 49 138
e 49 143
e 49 145
e 49 147
e 49 177
e 49 183
e 49 187
e 49 194
e 50 61
e 50 65
e 50 68
e 50 75
e 50 90
e 50 97
e 50 103
e 50 104
e 50 108
e 50 112
e 50 120
e 50 139
e 50 175
e 51 86
e 51 88
e 51 92
e 51 102
e 51 123
e 51 130
e 51 136
e 51 147
e 51 149
e 51 150
e 51 151
e 51 176
e 51 190
e 51 192
e 52 61
e 52 89
e 52 91
e 52 97
e 52 103
e 52 138
e 52 158
e 52 164
e 52 173
e 52 177
e 52 193
e 52 195
e 53 58
e 53 79
e 53 84
e 53 92
e 53 97
e 53 101
e 53 104
e 53 131
e 53 144
e 53 145
e 53 177
e 53 178
e 53 181
e 53 189
e 53 193
e 53 194
e 54 62
e 54 102
e 54 105
e 54 135
e 54 148
e 54 160
e 54 163
e 54 178
e 54 181
e 54 184
e 54 186
e 54 189
e 55 56
e 55 77
e 55 78
e 55 80
e 55 88
e 55 97
e 55 107
e 55 115
e 55 116
e 55 159
e 55 162
e 55 189
e 56 58
e 56 62
e 56 68
e 56 92
e 56 156
e 56 158
e 56 164
e 56 171
e 56 185
e 57 62
e 57 73
e 57 88
e 57 93
e 57 109
e 57 114
e 57 121
e 57 123
e 57 132
e 57 135
e 57 136
e 57 144
e 57 148
e 57 156
e 57 163
e 57 171
e 57 174
e 57 176
e 57 180
e 57 185
e 57 187
e 57 196
e 57 199
e 58 67
e 58 68
e 58 84
e 58 138
e 58 145
e 58 168
e 58 173
e 58 185
e 58 193
e 59 65
e 59 66
e 59 68
e 59 70
e 59 74
e 59 84
e 59 89
e 59 90
e 59 91
e 59 106
e 59 122
e 59 141
e 59 156
e 59 163
e 59 176
e 59 193
e 60 66
e 60 69
e 60 94
e 60 125
e 60 126
e 60 128
e 60 140
e 60 141
e 60 146
e 60 160
e 60 161
e 60 170
e 60 178
e 60 184
e 60 192
e 61 64
e 61 76
e 61 81
e 61 89
e 61 93
e 61 105
e 61 123
e 61 124
e 61 125
e 61 130
e 61 136
e 61 138
e 61 146
e 61 147
e 61 165
e 61 172
e 61 195
e 62 71
e 62 87
e 62 94
e 62 113
e 62 126
e 62 138
e 62 160
e 62 176
e 62 185
e 63 67
e 63 69
e 63 75
e 63 77
e 63 79
e 63 89
e 63 90
e 63 102
e 63 103
e 63 106
e 63 109
e 63 113
e 63 115
e 63 123
e 63 125
e 63 157
e 63 171
e 63 177
e 63 183
e 64 70
e 64 79
e 64 87
e 64 93
e 64 115
e 64 116
e 64 117
e 64 120
e 64 122
e 64 135
e 64 145
e 64 149
e 64 150
e 64 168
e 64 170
e 64 184
e 64 188
e 64 190
e 64 194
e 64 196
e 65 71
e 65 72
e 65 81
e 65 85
e 65 88
e 65 95
e 65 97
e 65 103
e 65 109
e 65 119
e 65 126
e 65 128
e 65 131
e 65 139
e 65 144
e 65 147
e 65 155
e 65 162
e 66 73
e 66 75
e 66 93
e 66 100
e 66 102
e 66 108
e 66 109
e 66 114
e 66 122
e 66 124
e 66 125
e 66 128
e 66 138
e 66 141
e 66 146
e 66 153
e 66 154
e 66 167
e 66 174
e 66 186
e 66 193
e 67 69
e 67 70
e 67 71
e 67 87
e 67 91
e 67 92
e 67 106
e 67 133
e 67 137
e 67 145
e 67 146
e 67 152
e 67 160
e 67 176
e 67 190
e 68 82
e 68 85
e 68 87
e 68 88
e 68 123
e 68 124
e 68 131
e 68 162
e 68 173
e 68 187
e 68 198
e 69 79
e 69 85
e 69 94
e 69 100
e 69 134
e 69 146
e 69 150
e 69 158
e 69 173
e 69 177
e 69 188
e 69 190
e 70 75
e 70 92
e 70 93
e 70 111
e 70 131
e 70 135
e 70 141
e 70 145
e 70 146
e 70 152
e 70 166
e 70 170
e 70 177
e 70 184
e 70 185
e 70 186
e 70 190
e 71 80
e 71 85
e 71 87
e 71 93
e 71 94
e 71 99
e 71 100
e 71 103
e 71 125
e 71 130
e 71 132
e 71 185
e 71 191
e 71 195
e 71 196
e 71 198
e 72 79
e 72 81
e 72 86
e 72 99
e 72 105
e 72 112
e 72 119
e 72 123
e 72 143
e 72 148
e 72 160
e 72 165
e 72 179
e 72 189
e 72 196
e 73 80
e 73 90
e 73 130
e 73 137
e 73 140
e 73 154
e 73 167
e 74 87
e 74 98
e 74 106
e 74 113
e 74 115
e 74 121
e 74 123
e 74 137
e 74 140
e 74 147
e 74 172
e 74 179
e 74 184
e 74 199
e 75 80
e 75 81
e 75 84
e 75 90
e 75 101
e 75 123
e 75 124
e 75 130
e 75 138
e 75 139
e 75 140
e 75 185
e 75 196
e 76 82
e 76 104
e 76 105
e 76 107
e 76 109
e 76 117
e 76 132
e 76 134
e 76 140
e 76 142
e 76 158
e 77 78
e 77 87
e 77 115
e 77 117
e 77 126
e 77 160
e 77 173
e 77 189
e 77 192
e 77 196
e 77 197
e 78 81
e 78 85
e 78 86
e 78 93
e 78 99
e 78 102
e 78 106
e 78 109
e 78 115
e 78 123
e 78 124
e 78 145
e 78 146
e 78 149
e 78 159
e 78 196
e 79 90
e 79 92
e 79 95
e 79 102
e 79 130
e 79 137
e 79 151
e 79 155
e 79 163
e 79 165
e 79 175
e 79 199
e 80 84
e 80 92
e 80 103
e 80 114
e 80 134
e 80 156
e 80 166
e 80 168
e 80 173
e 80 178
e 80 188
e 80 190
e 81 89
e 81 97
e 81 102
e 81 132
e 81 144
e 81 153
e 81 155
e 81 161
e 81 177
e 81 191
e 81 200
e 82 97
e 82 109
e 82 140
e 82 149
e 82 150
e 82 157
e 82 168
e 82 173
e 82 175
e 82 176
e 82 192
e 83 89
e 83 94
e 83 96
e 83 110
e 83 119
e 83 131
e 83 136
e 83 169
e 83 171
e 83 189
e 83 190
e 83 193
e 83 196
e 84 90
e 84 105
e 84 113
e 84 134
e 84 137
e 84 145
e 84 151
e 84 171
e 84 172
e 84 173
e 84 177
e 85 91
e 85 97
e 85 99
e 85 113
e 85 127
e 85 151
e 85 173
e 85 176
e 85 178
e 85 181
e 85 188
e 85 194
e 86 106
e 86 113
e 86 122
e 86 130
e 86 134
e 86 155
e 86 163
e 86 167
e 86 181
e 86 192
e 87 94
e 87 138
e 87 144
e 87 171
e 87 176
e 87 186
e 87 191
e 87 192
e 88 171
e 88 180
e 88 182
e 88 183
e 88 199
e 89 90
e 89 105
e 89 111
e 89 117
e 89 120
e 89 130
e 89 132
e 89 167
e 89 174
e 89 185
e 90 97
e 90 127
e 90 132
e 90 138
e 90 142
e 90 156
e 90 161
e 90 186
e 90 190
e 90 192
e 90 195
e 91 93
e 91 100
e 91 110
e 91 121
e 91 138
e 91 143
e 91 152
e 91 158
e 91 179
e 91 191
e 91 193
e 91 194
e 92 93
e 92 103
e 92 104
e 92 108
e 92 117
e 92 125
e 92 163
e 92 178
e 92 192
e 92 198
e 92 199
e 93 106
e 93 113
e 93 121
e 93 123
e 93 149
e 93 164
e 93 174
e 93 176
e 93 194
e 94 98
e 94 108
e 94 114
e 94 130
e 94 140
e 94 149
e 94 156
e 94 158
e 94 162
e 94 169
e 94 171
e 94 196
e 95 120
e 95 140
e 95 147
e 95 151
e 95 152
e 95 160
e 95 175
e 95 178
e 95 181
e 96 97
e 96 103
e 96 109
e 96 116
e 96 117
e 96 132
e 96 136
e 96 140
e 96 147
e 96 153
e 96 173
e 96 189
e 96 192
e 97 120
e 97 131
e 97 179
e 97 188
e 97 191
e 98 116
e 98 128
e 98 133
e 98 143
e 98 152
e 98 179
e 98 184
e 98 198
e 99 111
e 99 118
e 99 129
e 99 150
e 99 162
e 99 163
e 99 185
e 99 186
e 99 198
e 100 102
e 100 121
e 100 123
e 100 138
e 100 150
e 100 156
e 100 177
e 100 180
e 100 193
e 101 112
e 101 116
e 101 121
e 101 124
e 101 125
e 101 152
e 101 188
e 101 196
e 102 107
e 102 118
e 102 124
e 102 134
e 102 137
e 102 140
e 102 145
e 102 150
e 102 168
e 102 171
e 102 196
e 102 199
e 103 115
e 103 136
e 103 140
e 103 147
e 103 171
e 103 174
e 103 176
e 103 184
e 104 120
e 104 126
e 104 129
e 104 152
e 104 160
e 104 167
e 104 192
e 104 193
e 104 194
e 105 115
e 105 143
e 105 146
e 105 147
e 105 179
e 105 184
e 105 186
e 105 191
e 106 108
e 106 124
e 106 129
e 106 134
e 106 141
e 106 159
e 106 168
e 106 170
e 106 174
e 106 188
e 107 110
e 107 116
e 107 120
e 107 127
e 107 154
e 107 184
e 108 121
e 108 130
e 108 140
e 108 147
e 108 179
e 109 119
e 109 136
e 109 141
e 109 143
e 109 156
e 109 160
e 109 173
e 109 195
e 110 111
e 110 122
e 110 131
e 110 138
e 110 147
e 110 175
e 110 178
e 111 128
e 111 131
e 111 140
e 111 147
e 111 163
e 111 169
e 111 186
e 112 117
e 112 129
e 112 158
e 112 166
e 112 183
e 113 116
e 113 117
e 113 145
e 113 149
e 113 152
e 114 119
e 114 128
e 114 133
e 114 134
e 114 144
e 114 148
e 114 157
e 114 162
e 114 165
e 114 171
e 114 176
e 114 189
e 114 200
e 115 117
e 115 122
e 115 125
e 115 137
e 115 168
e 115 184
e 115 190
e 116 118
e 116 124
e 116 140
e 116 141
e 116 143
e 116 149
e 116 158
e 116 163
e 116 182
e 116 185
e 116 194
e 116 199
e 117 122
e 117 130
e 117 131
e 117 140
e 117 142
e 117 151
e 117 155
e 117 166
e 117 182
e 117 195
e 118 125
e 118 134
e 118 145
e 118 153
e 118 182
e 118 185
e 118 186
e 118 197
e 119 124
e 119 133
e 119 134
e 119 142
e 119 148
e 119 197
e 119 200
e 120 149
e 120 155
e 120 165
e 120 173
e 120 178
e 120 182
e 120 186
e 120 190
e 120 194
e 121 135
e 121 137
e 121 147
e 121 164
e 121 169
e 121 177
e 121 188
e 122 123
e 122 130
e 122 133
e 122 136
e 122 156
e 122 161
e 122 165
e 122 191
e 122 192
e 123 124
e 123 131
e 123 137
e 123 139
e 123 162
e 123 165
e 123 172
e 123 181
e 123 185
e 124 136
e 124 138
e 124 142
e 124 148
e 124 158
e 124 173
e 124 187
e 124 190
e 125 150
e 125 171
e 125 178
e 125 181
e 125 190
e 126 146
e 126 154
e 126 155
e 126 159
e 126 161
e 126 180
e 126 184
e 126 185
e 127 131
e 127 134
e 127 140
e 127 141
e 127 153
e 127 156
e 127 158
e 127 159
e 127 179
e 127 195
e 128 157
e 128 161
e 128 162
e 128 198
e 129 130
e 129 132
e 129 135
e 129 150
e 129 152
e 129 178
e 129 195
e 130 131
e 130 141
e 130 142
e 130 152
e 130 157
e 130 186
e 130 187
e 130 198
e 131 142
e 131 162
e 131 168
e 131 170
e 131 172
e 131 179
e 131 190
e 131 192
e 131 198
e 132 135
e 132 154
e 132 180
e 132 199
e 133 140
e 133 162
e 133 165
e 133 167
e 133 174
e 133 193
e 134 136
e 134 148
e 134 154
e 134 155
e 134 157
e 135 155
e 135 182
e 135 185
e 135 192
e 135 199
e 136 140
e 136 150
e 136 152
e 136 155
e 136 162
e 136 163
e 136 179
e 137 139
e 137 142
e 137 166
e 137 194
e 138 153
e 138 173
e 138 193
e 139 166
e 139 170
e 139 173
e 139 174
e 139 188
e 139 194
e 139 196
e 140 144
e 140 184
e 140 186
e 140 191
e 141 145
e 141 153
e 141 162
e 141 170
e 141 180
e 141 200
e 142 168
e 142 170
e 142 179
e 142 200
e 143 159
e 143 164
e 143 167
e 143 173
e 143 176
e 143 179
e 143 195
e 144 146
e 144 190
e 144 191
e 144 193
e 144 200
e 145 170
e 145 183
e 145 195
e 146 147
e 146 160
e 146 167
e 146 173
e 146 179
e 146 196
e 147 172
e 147 190
e 148 161
e 148 164
e 148 165
e 148 168
e 148 176
e 148 179
e 148 180
e 148 187
e 149 177
e 149 178
e 149 191
e 150 169
e 150 177
e 151 156
e 151 159
e 151 164
e 151 166
e 151 188
e 151 190
e 151 197
e 152 162
e 152 180
e 152 195
e 152 198
e 153 174
e 153 177
e 153 184
e 153 185
e 153 187
e 153 194
e 154 169
e 154 172
e 154 173
e 154 190
e 155 156
e 155 160
e 155 187
e 155 192
e 155 196
e 156 163
e 156 168
e 156 171
e 156 175
e 156 180
e 156 181
e 156 188
e 156 192
e 156 199
e 157 160
e 157 172
e 157 197
e 158 163
e 158 170
e 158 180
e 158 187
e 158 189
e 158 195
e 159 168
e 159 173
e 159 183
e 159 187
e 159 198
e 159 200
e 160 175
e 160 180
e 160 186
e 160 190
e 160 198
e 161 162
e 161 182
e 161 195
e 161 196
e 162 177
e 162 178
e 163 184
e 163 190
e 164 175
e 164 176
e 164 184
e 164 191
e 165 191
e 165 193
e 166 167
e 166 170
e 166 173
e 166 176
e 166 181
e 166 192
e 166 193
e 167 179
e 167 183
e 167 186
e 167 193
e 167 194
e 168 182
e 168 191
e 169 172
e 169 175
e 169 178
e 169 187
e 170 172
e 170 183
e 170 187
e 171 173
e 171 195
e 172 174
e 172 193
e 173 196
e 173 198
e 174 187
e 174 189
e 174 194
e 175 177
e 175 182
e 175 185
e 175 197
e 176 182
e 176 197
e 178 185
e 178 189
e 178 199
e 179 200
e 180 181
e 180 197
e 181 182
e 181 189
e 183 199
e 184 187
e 184 199
e 186 193
e 186 196
e 186 199
e 187 192
e 188 193
e 188 194
e 190 191
e 191 194
e 191 198
e 192 195
e 192 196
